100
32
19
5
14
15
19
14
4
17
9
29
16
29
5
15
9
28
8
6
5
7
7
19
2
19
2
2
2
1
3
3
4
1
17
1
2
20
1
2
2
1
4
2
1
1
1
1
2
1
2
2
3
17
18
3
1
3
7
2
1
1
1
4
5
1
21
2
1
6
1
6
16
7
1
3
9
1
1
22
1
2
4
2
1
2
2
1
3
20
18
1
1
4
1
1
3
3
1
1
2
1